c Modular CNF with 2 modules
c Generated CNF instance
p cnf 15 224
7 1 2 0
7 1 -2 0
7 -1 2 0
-7 1 2 0
7 1 5 0
7 1 -5 0
7 -1 5 0
-7 1 5 0
4 2 7 0
4 2 -7 0
4 -2 7 0
-4 2 7 0
6 3 5 0
6 3 -5 0
6 -3 5 0
-6 3 5 0
6 4 5 0
6 4 -5 0
6 -4 5 0
-6 4 5 0
2 5 1 0
2 5 -1 0
2 -5 1 0
-2 5 1 0
1 6 4 0
1 6 -4 0
1 -6 4 0
-1 6 4 0
6 7 5 0
6 7 -5 0
6 -7 5 0
-6 7 5 0
6 2 5 0
6 2 -5 0
6 -2 5 0
-6 2 5 0
6 5 2 0
6 5 -2 0
6 -5 2 0
-6 5 2 0
1 5 7 0
1 5 -7 0
1 -5 7 0
-1 5 7 0
6 4 2 0
6 4 -2 0
6 -4 2 0
-6 4 2 0
1 3 4 0
1 3 -4 0
1 -3 4 0
-1 3 4 0
5 1 7 0
5 1 -7 0
5 -1 7 0
-5 1 7 0
5 4 1 0
5 4 -1 0
5 -4 1 0
-5 4 1 0
3 7 2 0
3 7 -2 0
3 -7 2 0
-3 7 2 0
4 1 2 0
4 1 -2 0
4 -1 2 0
-4 1 2 0
7 1 5 0
7 1 -5 0
7 -1 5 0
-7 1 5 0
2 1 4 0
2 1 -4 0
2 -1 4 0
-2 1 4 0
5 3 2 0
5 3 -2 0
5 -3 2 0
-5 3 2 0
7 2 5 0
7 2 -5 0
7 -2 5 0
-7 2 5 0
4 2 5 0
4 2 -5 0
4 -2 5 0
-4 2 5 0
1 7 3 0
1 7 -3 0
1 -7 3 0
-1 7 3 0
4 2 1 0
4 2 -1 0
4 -2 1 0
-4 2 1 0
6 3 5 0
6 3 -5 0
6 -3 5 0
-6 3 5 0
7 2 1 0
7 2 -1 0
7 -2 1 0
-7 2 1 0
5 1 2 0
5 1 -2 0
5 -1 2 0
-5 1 2 0
5 7 3 0
5 7 -3 0
5 -7 3 0
-5 7 3 0
11 8 14 0
11 8 -14 0
11 -8 14 0
-11 8 14 0
8 13 9 0
8 13 -9 0
8 -13 9 0
-8 13 9 0
9 8 11 0
9 8 -11 0
9 -8 11 0
-9 8 11 0
13 10 14 0
13 10 -14 0
13 -10 14 0
-13 10 14 0
14 8 13 0
14 8 -13 0
14 -8 13 0
-14 8 13 0
9 8 11 0
9 8 -11 0
9 -8 11 0
-9 8 11 0
9 12 13 0
9 12 -13 0
9 -12 13 0
-9 12 13 0
10 8 13 0
10 8 -13 0
10 -8 13 0
-10 8 13 0
12 10 14 0
12 10 -14 0
12 -10 14 0
-12 10 14 0
10 11 8 0
10 11 -8 0
10 -11 8 0
-10 11 8 0
14 11 10 0
14 11 -10 0
14 -11 10 0
-14 11 10 0
14 10 11 0
14 10 -11 0
14 -10 11 0
-14 10 11 0
11 10 12 0
11 10 -12 0
11 -10 12 0
-11 10 12 0
14 12 10 0
14 12 -10 0
14 -12 10 0
-14 12 10 0
13 9 8 0
13 9 -8 0
13 -9 8 0
-13 9 8 0
10 9 12 0
10 9 -12 0
10 -9 12 0
-10 9 12 0
9 8 14 0
9 8 -14 0
9 -8 14 0
-9 8 14 0
14 10 12 0
14 10 -12 0
14 -10 12 0
-14 10 12 0
14 10 8 0
14 10 -8 0
14 -10 8 0
-14 10 8 0
8 14 13 0
8 14 -13 0
8 -14 13 0
-8 14 13 0
14 8 9 0
14 8 -9 0
14 -8 9 0
-14 8 9 0
13 8 9 0
13 8 -9 0
13 -8 9 0
-13 8 9 0
12 11 13 0
12 11 -13 0
12 -11 13 0
-12 11 13 0
12 14 8 0
12 14 -8 0
12 -14 8 0
-12 14 8 0
11 8 9 0
11 8 -9 0
11 -8 9 0
-11 8 9 0
10 12 13 0
10 12 -13 0
10 -12 13 0
-10 12 13 0
8 13 14 0
8 13 -14 0
8 -13 14 0
-8 13 14 0
8 11 9 0
8 11 -9 0
8 -11 9 0
-8 11 9 0
